c description: Tseitin formula on , with odd charge
c generator: CNFgen (0.9.0)
c copyright: (C) 2012-2020 Massimo Lauria <massimo.lauria@uniroma1.it>
c url: https://massimolauria.net/cnfgen
c
p cnf 20 110
1 2 3 0
1 -2 -3 0
-1 2 -3 0
-1 -2 3 0
4 5 6 -7 0
4 5 -6 7 0
4 -5 6 7 0
4 -5 -6 -7 0
-4 5 6 7 0
-4 5 -6 -7 0
-4 -5 6 -7 0
-4 -5 -6 7 0
1 4 8 9 10 -11 0
1 4 8 9 -10 11 0
1 4 8 -9 10 11 0
1 4 8 -9 -10 -11 0
1 4 -8 9 10 11 0
1 4 -8 9 -10 -11 0
1 4 -8 -9 10 -11 0
1 4 -8 -9 -10 11 0
1 -4 8 9 10 11 0
1 -4 8 9 -10 -11 0
1 -4 8 -9 10 -11 0
1 -4 8 -9 -10 11 0
1 -4 -8 9 10 -11 0
1 -4 -8 9 -10 11 0
1 -4 -8 -9 10 11 0
1 -4 -8 -9 -10 -11 0
-1 4 8 9 10 11 0
-1 4 8 9 -10 -11 0
-1 4 8 -9 10 -11 0
-1 4 8 -9 -10 11 0
-1 4 -8 9 10 -11 0
-1 4 -8 9 -10 11 0
-1 4 -8 -9 10 11 0
-1 4 -8 -9 -10 -11 0
-1 -4 8 9 10 -11 0
-1 -4 8 9 -10 11 0
-1 -4 8 -9 10 11 0
-1 -4 8 -9 -10 -11 0
-1 -4 -8 9 10 11 0
-1 -4 -8 9 -10 -11 0
-1 -4 -8 -9 10 -11 0
-1 -4 -8 -9 -10 11 0
8 12 13 -14 0
8 12 -13 14 0
8 -12 13 14 0
8 -12 -13 -14 0
-8 12 13 14 0
-8 12 -13 -14 0
-8 -12 13 -14 0
-8 -12 -13 14 0
15 -16 0
-15 16 0
2 5 9 17 -18 0
2 5 9 -17 18 0
2 5 -9 17 18 0
2 5 -9 -17 -18 0
2 -5 9 17 18 0
2 -5 9 -17 -18 0
2 -5 -9 17 -18 0
2 -5 -9 -17 18 0
-2 5 9 17 18 0
-2 5 9 -17 -18 0
-2 5 -9 17 -18 0
-2 5 -9 -17 18 0
-2 -5 9 17 -18 0
-2 -5 9 -17 18 0
-2 -5 -9 17 18 0
-2 -5 -9 -17 -18 0
3 10 12 15 -17 0
3 10 12 -15 17 0
3 10 -12 15 17 0
3 10 -12 -15 -17 0
3 -10 12 15 17 0
3 -10 12 -15 -17 0
3 -10 -12 15 -17 0
3 -10 -12 -15 17 0
-3 10 12 15 17 0
-3 10 12 -15 -17 0
-3 10 -12 15 -17 0
-3 10 -12 -15 17 0
-3 -10 12 15 -17 0
-3 -10 12 -15 17 0
-3 -10 -12 15 17 0
-3 -10 -12 -15 -17 0
6 13 16 19 -20 0
6 13 16 -19 20 0
6 13 -16 19 20 0
6 13 -16 -19 -20 0
6 -13 16 19 20 0
6 -13 16 -19 -20 0
6 -13 -16 19 -20 0
6 -13 -16 -19 20 0
-6 13 16 19 20 0
-6 13 16 -19 -20 0
-6 13 -16 19 -20 0
-6 13 -16 -19 20 0
-6 -13 16 19 -20 0
-6 -13 16 -19 20 0
-6 -13 -16 19 20 0
-6 -13 -16 -19 -20 0
7 18 -19 0
7 -18 19 0
-7 18 19 0
-7 -18 -19 0
11 14 -20 0
11 -14 20 0
-11 14 20 0
-11 -14 -20 0